Maximize

5 x_0 + 3 x_1 + 3 x_2 + 3 x_3 + 1 x_4 + 3 x_5 + 3 x_6 + 0 x_7 + 1 x_8 + 5 x_9 + 1 x_10 + 5 x_11 + 4 x_12 + 0 x_13 + 2 x_14 + 1 x_15 + 4 x_16 + 3 x_17 + 4 x_18 + 4 x_19 + 4 x_20 + 4 x_21 + 2 x_22 + 1 x_23 + 2 x_24 + 0 x_25 + 2 x_26 + 2 x_27 + 4 x_28 + 2 x_29 + 3 x_30 + 5 x_31 + 3 x_32 + 2 x_33 + 2 x_34 + 4 x_35 + 1 x_36 + 4 x_37 + 0 x_38 + 1 x_39 + 1 x_40 + 5 x_41 + 1 x_42 + 1 x_43 + 1 x_44 + 0 x_45 + 0 x_46 + 4 x_47 + 1 x_48 + 4 x_49


Subject To

a0: 0 x_0 + 0 x_1 + 0 x_2 + 0 x_3 + 0 x_4 + 1 x_5 + 0 x_6 + 1 x_7 + 0 x_8 + 0 x_9 + 0 x_10 + 0 x_11 + 0 x_12 + 0 x_13 + 0 x_14 + 0 x_15 + 0 x_16 + 0 x_17 + 0 x_18 + 0 x_19 + 0 x_20 + 0 x_21 + 0 x_22 + 0 x_23 + 0 x_24 + 0 x_25 + 0 x_26 + 0 x_27 + 0 x_28 + 0 x_29 + 0 x_30 + 0 x_31 + 0 x_32 + 0 x_33 + 0 x_34 + 0 x_35 + 0 x_36 + 0 x_37 + 0 x_38 + 0 x_39 + 0 x_40 + 0 x_41 + 0 x_42 + 0 x_43 + 0 x_44 + 0 x_45 + 0 x_46 + 0 x_47 + 1 x_48 + 0 x_49 >= 1
a1: 0 x_0 + 0 x_1 + 0 x_2 + 0 x_3 + 0 x_4 + 0 x_5 + 0 x_6 + 0 x_7 + 0 x_8 + 0 x_9 + 0 x_10 + 0 x_11 + 0 x_12 + 0 x_13 + 0 x_14 + 0 x_15 + 0 x_16 + 0 x_17 + 0 x_18 + 1 x_19 + 0 x_20 + 0 x_21 + 0 x_22 + 0 x_23 + 0 x_24 + 0 x_25 + 0 x_26 + 0 x_27 + 0 x_28 + 0 x_29 + 0 x_30 + 1 x_31 + 0 x_32 + 0 x_33 + 0 x_34 + 0 x_35 + 0 x_36 + 0 x_37 + 1 x_38 + 0 x_39 + 1 x_40 + 0 x_41 + 0 x_42 + 0 x_43 + 0 x_44 + 0 x_45 + 0 x_46 + 0 x_47 + 1 x_48 + 0 x_49 >= 1
a2: 0 x_0 + 0 x_1 + 0 x_2 + 0 x_3 + 0 x_4 + 0 x_5 + 0 x_6 + 1 x_7 + 0 x_8 + 0 x_9 + 0 x_10 + 1 x_11 + 0 x_12 + 0 x_13 + 0 x_14 + 0 x_15 + 0 x_16 + 0 x_17 + 0 x_18 + 0 x_19 + 0 x_20 + 0 x_21 + 0 x_22 + 0 x_23 + 0 x_24 + 0 x_25 + 1 x_26 + 0 x_27 + 0 x_28 + 0 x_29 + 0 x_30 + 0 x_31 + 1 x_32 + 0 x_33 + 0 x_34 + 0 x_35 + 0 x_36 + 0 x_37 + 0 x_38 + 0 x_39 + 1 x_40 + 0 x_41 + 0 x_42 + 0 x_43 + 0 x_44 + 0 x_45 + 0 x_46 + 0 x_47 + 0 x_48 + 1 x_49 >= 1
a3: 0 x_0 + 0 x_1 + 0 x_2 + 0 x_3 + 0 x_4 + 0 x_5 + 0 x_6 + 0 x_7 + 0 x_8 + 0 x_9 + 0 x_10 + 0 x_11 + 1 x_12 + 0 x_13 + 0 x_14 + 0 x_15 + 1 x_16 + 0 x_17 + 0 x_18 + 1 x_19 + 0 x_20 + 0 x_21 + 0 x_22 + 1 x_23 + 1 x_24 + 0 x_25 + 0 x_26 + 0 x_27 + 0 x_28 + 0 x_29 + 0 x_30 + 0 x_31 + 1 x_32 + 0 x_33 + 0 x_34 + 1 x_35 + 0 x_36 + 0 x_37 + 0 x_38 + 0 x_39 + 0 x_40 + 0 x_41 + 0 x_42 + 0 x_43 + 0 x_44 + 0 x_45 + 0 x_46 + 0 x_47 + 0 x_48 + 0 x_49 >= 1
a4: 0 x_0 + 0 x_1 + 0 x_2 + 0 x_3 + 0 x_4 + 0 x_5 + 0 x_6 + 0 x_7 + 0 x_8 + 0 x_9 + 0 x_10 + 0 x_11 + 0 x_12 + 0 x_13 + 0 x_14 + 0 x_15 + 1 x_16 + 0 x_17 + 1 x_18 + 0 x_19 + 0 x_20 + 0 x_21 + 0 x_22 + 0 x_23 + 0 x_24 + 0 x_25 + 0 x_26 + 0 x_27 + 0 x_28 + 0 x_29 + 0 x_30 + 0 x_31 + 0 x_32 + 0 x_33 + 0 x_34 + 0 x_35 + 1 x_36 + 0 x_37 + 0 x_38 + 0 x_39 + 0 x_40 + 1 x_41 + 0 x_42 + 1 x_43 + 0 x_44 + 0 x_45 + 0 x_46 + 0 x_47 + 0 x_48 + 0 x_49 >= 1
a5: 1 x_0 + 0 x_1 + 0 x_2 + 0 x_3 + 0 x_4 + 0 x_5 + 0 x_6 + 0 x_7 + 0 x_8 + 0 x_9 + 1 x_10 + 1 x_11 + 0 x_12 + 0 x_13 + 0 x_14 + 0 x_15 + 0 x_16 + 0 x_17 + 0 x_18 + 0 x_19 + 0 x_20 + 1 x_21 + 0 x_22 + 1 x_23 + 0 x_24 + 0 x_25 + 1 x_26 + 0 x_27 + 0 x_28 + 0 x_29 + 0 x_30 + 0 x_31 + 0 x_32 + 0 x_33 + 1 x_34 + 0 x_35 + 0 x_36 + 0 x_37 + 0 x_38 + 0 x_39 + 1 x_40 + 0 x_41 + 0 x_42 + 0 x_43 + 0 x_44 + 1 x_45 + 0 x_46 + 0 x_47 + 0 x_48 + 0 x_49 >= 1
a6: 1 x_0 + 0 x_1 + 0 x_2 + 0 x_3 + 0 x_4 + 1 x_5 + 0 x_6 + 0 x_7 + 0 x_8 + 1 x_9 + 0 x_10 + 1 x_11 + 0 x_12 + 0 x_13 + 1 x_14 + 0 x_15 + 1 x_16 + 0 x_17 + 0 x_18 + 0 x_19 + 0 x_20 + 0 x_21 + 0 x_22 + 0 x_23 + 0 x_24 + 1 x_25 + 0 x_26 + 0 x_27 + 0 x_28 + 0 x_29 + 0 x_30 + 0 x_31 + 0 x_32 + 0 x_33 + 1 x_34 + 0 x_35 + 1 x_36 + 0 x_37 + 0 x_38 + 0 x_39 + 0 x_40 + 0 x_41 + 0 x_42 + 1 x_43 + 0 x_44 + 0 x_45 + 0 x_46 + 1 x_47 + 0 x_48 + 1 x_49 >= 1
a7: 0 x_0 + 1 x_1 + 0 x_2 + 1 x_3 + 1 x_4 + 1 x_5 + 0 x_6 + 0 x_7 + 0 x_8 + 0 x_9 + 0 x_10 + 0 x_11 + 0 x_12 + 1 x_13 + 0 x_14 + 0 x_15 + 0 x_16 + 1 x_17 + 0 x_18 + 0 x_19 + 0 x_20 + 0 x_21 + 1 x_22 + 0 x_23 + 0 x_24 + 0 x_25 + 0 x_26 + 0 x_27 + 1 x_28 + 0 x_29 + 0 x_30 + 0 x_31 + 0 x_32 + 0 x_33 + 1 x_34 + 0 x_35 + 0 x_36 + 0 x_37 + 0 x_38 + 0 x_39 + 0 x_40 + 0 x_41 + 0 x_42 + 1 x_43 + 0 x_44 + 0 x_45 + 0 x_46 + 1 x_47 + 0 x_48 + 0 x_49 >= 1
a8: 0 x_0 + 0 x_1 + 0 x_2 + 1 x_3 + 0 x_4 + 0 x_5 + 0 x_6 + 0 x_7 + 0 x_8 + 0 x_9 + 1 x_10 + 0 x_11 + 0 x_12 + 0 x_13 + 0 x_14 + 0 x_15 + 1 x_16 + 1 x_17 + 0 x_18 + 0 x_19 + 0 x_20 + 1 x_21 + 0 x_22 + 0 x_23 + 0 x_24 + 0 x_25 + 0 x_26 + 1 x_27 + 0 x_28 + 0 x_29 + 0 x_30 + 0 x_31 + 0 x_32 + 0 x_33 + 0 x_34 + 0 x_35 + 0 x_36 + 0 x_37 + 0 x_38 + 0 x_39 + 0 x_40 + 1 x_41 + 0 x_42 + 0 x_43 + 0 x_44 + 0 x_45 + 0 x_46 + 0 x_47 + 0 x_48 + 0 x_49 >= 1
a9: 0 x_0 + 0 x_1 + 0 x_2 + 0 x_3 + 1 x_4 + 0 x_5 + 0 x_6 + 0 x_7 + 0 x_8 + 0 x_9 + 1 x_10 + 0 x_11 + 0 x_12 + 0 x_13 + 1 x_14 + 0 x_15 + 0 x_16 + 0 x_17 + 0 x_18 + 0 x_19 + 1 x_20 + 0 x_21 + 0 x_22 + 0 x_23 + 0 x_24 + 0 x_25 + 0 x_26 + 1 x_27 + 0 x_28 + 0 x_29 + 0 x_30 + 0 x_31 + 0 x_32 + 1 x_33 + 0 x_34 + 0 x_35 + 0 x_36 + 0 x_37 + 0 x_38 + 0 x_39 + 0 x_40 + 0 x_41 + 0 x_42 + 0 x_43 + 0 x_44 + 1 x_45 + 0 x_46 + 0 x_47 + 0 x_48 + 0 x_49 >= 1
b0: x_0 + x_19 <= 1
b1: x_0 + x_39 <= 1
b2: x_1 + x_13 <= 1
b3: x_1 + x_17 <= 1
b4: x_1 + x_23 <= 1
b5: x_2 + x_6 <= 1
b6: x_2 + x_9 <= 1
b7: x_2 + x_10 <= 1
b8: x_2 + x_11 <= 1
b9: x_3 + x_23 <= 1
b10: x_3 + x_44 <= 1
b11: x_4 + x_47 <= 1
b12: x_5 + x_7 <= 1
b13: x_5 + x_13 <= 1
b14: x_5 + x_28 <= 1
b15: x_6 + x_2 <= 1
b16: x_6 + x_17 <= 1
b17: x_6 + x_32 <= 1
b18: x_7 + x_5 <= 1
b19: x_7 + x_11 <= 1
b20: x_7 + x_46 <= 1
b21: x_8 + x_19 <= 1
b22: x_8 + x_43 <= 1
b23: x_9 + x_2 <= 1
b24: x_9 + x_25 <= 1
b25: x_10 + x_2 <= 1
b26: x_10 + x_16 <= 1
b27: x_11 + x_2 <= 1
b28: x_11 + x_7 <= 1
b29: x_11 + x_34 <= 1
b30: x_12 + x_18 <= 1
b31: x_12 + x_41 <= 1
b32: x_13 + x_1 <= 1
b33: x_13 + x_5 <= 1
b34: x_13 + x_26 <= 1
b35: x_14 + x_15 <= 1
b36: x_15 + x_14 <= 1
b37: x_15 + x_30 <= 1
b38: x_16 + x_10 <= 1
b39: x_17 + x_1 <= 1
b40: x_17 + x_6 <= 1
b41: x_18 + x_12 <= 1
b42: x_18 + x_20 <= 1
b43: x_19 + x_0 <= 1
b44: x_19 + x_8 <= 1
b45: x_20 + x_18 <= 1
b46: x_20 + x_25 <= 1
b47: x_21 + x_38 <= 1
b48: x_21 + x_40 <= 1
b49: x_22 + x_27 <= 1
b50: x_22 + x_45 <= 1
b51: x_23 + x_1 <= 1
b52: x_23 + x_3 <= 1
b53: x_24 + x_33 <= 1
b54: x_24 + x_37 <= 1
b55: x_25 + x_9 <= 1
b56: x_25 + x_20 <= 1
b57: x_25 + x_42 <= 1
b58: x_26 + x_13 <= 1
b59: x_26 + x_39 <= 1
b60: x_27 + x_22 <= 1
b61: x_28 + x_5 <= 1
b62: x_29 + x_47 <= 1
b63: x_30 + x_15 <= 1
b64: x_30 + x_37 <= 1
b65: x_30 + x_47 <= 1
b66: x_31 + x_37 <= 1
b67: x_32 + x_6 <= 1
b68: x_32 + x_49 <= 1
b69: x_33 + x_24 <= 1
b70: x_33 + x_43 <= 1
b71: x_34 + x_11 <= 1
b72: x_35 + x_41 <= 1
b73: x_36 + x_47 <= 1
b74: x_37 + x_24 <= 1
b75: x_37 + x_30 <= 1
b76: x_37 + x_31 <= 1
b77: x_38 + x_21 <= 1
b78: x_38 + x_41 <= 1
b79: x_39 + x_0 <= 1
b80: x_39 + x_26 <= 1
b81: x_40 + x_21 <= 1
b82: x_41 + x_12 <= 1
b83: x_41 + x_35 <= 1
b84: x_41 + x_38 <= 1
b85: x_42 + x_25 <= 1
b86: x_43 + x_8 <= 1
b87: x_43 + x_33 <= 1
b88: x_44 + x_3 <= 1
b89: x_45 + x_22 <= 1
b90: x_45 + x_46 <= 1
b91: x_46 + x_7 <= 1
b92: x_46 + x_45 <= 1
b93: x_46 + x_48 <= 1
b94: x_47 + x_4 <= 1
b95: x_47 + x_29 <= 1
b96: x_47 + x_30 <= 1
b97: x_47 + x_36 <= 1
b98: x_48 + x_46 <= 1
b99: x_49 + x_32 <= 1
c0: 1768.1 x_0 + 1952.8 x_1 + 1621.6 x_2 + 1412.1 x_3 + 1853.4 x_4 + 1680.5 x_5 + 1933.6 x_6 + 1492.8 x_7 + 1835.8 x_8 + 1387.0 x_9 + 1958.2 x_10 + 1095.9 x_11 + 1291.7 x_12 + 1812.9 x_13 + 1247.2 x_14 + 1691.4 x_15 + 1055.9 x_16 + 1973.2 x_17 + 1923.7 x_18 + 1139.8 x_19 + 1535.4 x_20 + 1524.7 x_21 + 1486.7 x_22 + 1650.6 x_23 + 1181.8 x_24 + 1532.1 x_25 + 1609.5 x_26 + 1006.4 x_27 + 1647.5 x_28 + 1252.1 x_29 + 1384.0 x_30 + 1821.9 x_31 + 1496.8 x_32 + 1597.0 x_33 + 1821.3 x_34 + 1940.1 x_35 + 1055.7 x_36 + 1312.4 x_37 + 1216.9 x_38 + 1744.0 x_39 + 1374.3 x_40 + 1493.7 x_41 + 1100.2 x_42 + 1492.6 x_43 + 1930.1 x_44 + 1388.7 x_45 + 1945.6 x_46 + 1946.1 x_47 + 1833.2 x_48 + 1944.4 x_49 <= 47560




Binary

x_0 x_1 x_2 x_3 x_4 x_5 x_6 x_7 x_8 x_9 x_10 x_11 x_12 x_13 x_14 x_15 x_16 x_17 x_18 x_19 x_20 x_21 x_22 x_23 x_24 x_25 x_26 x_27 x_28 x_29 x_30 x_31 x_32 x_33 x_34 x_35 x_36 x_37 x_38 x_39 x_40 x_41 x_42 x_43 x_44 x_45 x_46 x_47 x_48 x_49

 


End
